* ENCODING=ISO-8859-1
NAME          CPLEX
ROWS
 N  obj1    
 G  c1      
 G  c2      
 G  c3      
 G  c4      
 G  c5      
 G  c6      
 G  c7      
 G  c8      
 G  c9      
 G  c10     
 G  c11     
 G  c12     
 G  c13     
 G  c14     
 G  c15     
 G  c16     
 G  c17     
 G  c18     
 G  c19     
 G  c20     
 G  c21     
 G  c22     
 G  c23     
 G  c24     
 G  c25     
 G  c26     
 G  c27     
 G  c28     
 G  c29     
 G  c30     
 G  c31     
 G  c32     
 G  c33     
 G  c34     
 G  c35     
 G  c36     
 G  c37     
 G  c38     
 G  c39     
 G  c40     
 G  c41     
 G  c42     
 G  c43     
 G  c44     
 G  c45     
 G  c46     
 G  c47     
 G  c48     
 G  c49     
 G  c50     
 G  c51     
 G  c52     
 G  c53     
 G  c54     
 G  c55     
 G  c56     
 G  c57     
 G  c58     
 G  c59     
 G  c60     
 G  c61     
 G  c62     
 G  c63     
 G  c64     
 G  c65     
 G  c66     
 G  c67     
 G  c68     
 G  c69     
 G  c70     
COLUMNS
    MARK0000  'MARKER'                 'INTORG'
    x1        obj1                            1
    x1        c15                           853
    x1        c21                           733
    x1        c32                           386
    x1        c35                           107
    x1        c41                           740
    x1        c56                           108
    x1        c57                           167
    x1        c66                           507
    x2        obj1                            1
    x2        c21                           140
    x2        c47                           252
    x2        c48                           465
    x2        c53                           579
    x2        c56                           598
    x3        obj1                            1
    x3        c4                            787
    x3        c13                           278
    x3        c30                           898
    x3        c36                           738
    x3        c44                           849
    x4        obj1                            1
    x4        c7                            866
    x4        c11                           516
    x4        c30                           562
    x4        c52                           996
    x4        c61                           857
    x4        c64                           295
    x4        c67                           656
    x4        c70                           628
    x5        obj1                            1
    x5        c2                            349
    x5        c27                           602
    x5        c35                           459
    x5        c54                           773
    x5        c55                           886
    x5        c62                           944
    x5        c65                           997
    x6        obj1                            1
    x6        c18                           537
    x6        c22                           535
    x7        obj1                            1
    x7        c3                            402
    x7        c10                           210
    x7        c20                           956
    x7        c43                           933
    x7        c44                           540
    x7        c49                           500
    x7        c52                           712
    x7        c58                           335
    x7        c67                           174
    x8        obj1                            1
    x8        c5                            214
    x8        c16                           452
    x8        c28                           849
    x8        c37                           870
    x8        c57                           549
    x8        c68                           718
    x9        obj1                            1
    x9        c9                            158
    x9        c16                           931
    x9        c58                           441
    x9        c59                           443
    x10       obj1                            1
    x10       c6                            992
    x10       c27                           828
    x10       c42                           928
    x10       c58                           869
    x10       c69                           777
    x11       obj1                            1
    x11       c22                           298
    x11       c23                           892
    x11       c24                           467
    x11       c26                           749
    x11       c37                           206
    x11       c41                           848
    x11       c47                           293
    x11       c59                           681
    x11       c65                           943
    x12       obj1                            1
    x12       c8                            912
    x12       c27                           891
    x12       c36                           934
    x12       c37                           771
    x12       c43                           805
    x12       c48                           206
    x12       c55                           764
    x12       c57                           830
    x12       c63                           574
    x12       c70                           117
    x13       obj1                            1
    x13       c25                           180
    x13       c54                           657
    x14       obj1                            1
    x14       c1                            186
    x14       c6                            316
    x14       c16                           574
    x14       c18                           642
    x14       c27                           970
    x14       c33                           476
    x14       c38                           477
    x14       c62                           436
    x15       obj1                            1
    x15       c1                            104
    x15       c6                            614
    x15       c7                            819
    x15       c35                           303
    x15       c36                           569
    x15       c38                           837
    x15       c44                           812
    x16       obj1                            1
    x16       c5                            638
    x16       c7                            728
    x16       c50                           105
    x16       c52                           447
    x16       c55                           390
    x16       c65                           359
    x17       obj1                            1
    x17       c2                            291
    x17       c4                            137
    x17       c8                            601
    x17       c11                           644
    x17       c13                           479
    x17       c27                           856
    x17       c35                           573
    x17       c40                           760
    x17       c47                           136
    x17       c48                           236
    x17       c57                           674
    x18       obj1                            1
    x18       c15                           776
    x18       c19                           636
    x18       c21                           222
    x18       c25                           180
    x18       c28                           430
    x18       c37                           207
    x18       c45                           779
    x18       c49                           837
    x18       c52                           220
    x18       c66                           891
    x19       obj1                            1
    x19       c5                            632
    x19       c22                           256
    x19       c24                           865
    x19       c49                           166
    x20       obj1                            1
    x20       c10                           523
    x20       c35                           449
    x20       c38                           827
    x20       c39                           415
    x20       c40                           550
    x20       c41                           342
    x20       c52                           835
    x20       c53                           665
    x20       c66                           529
    x20       c67                           917
    x21       obj1                            1
    x21       c7                            474
    x21       c8                            878
    x21       c10                           829
    x21       c13                           767
    x21       c14                           980
    x21       c23                           981
    x21       c30                           518
    x21       c65                           810
    x22       obj1                            1
    x22       c4                            351
    x22       c5                            115
    x22       c18                           719
    x22       c19                           871
    x22       c26                           847
    x22       c34                           429
    x22       c40                           811
    x22       c61                           652
    x22       c62                           830
    x22       c67                           110
    x22       c68                           338
    x22       c70                           328
    x23       obj1                            1
    x23       c6                            328
    x23       c15                           520
    x23       c18                           274
    x23       c19                           903
    x23       c20                           891
    x23       c21                           768
    x23       c24                           710
    x23       c44                           159
    x23       c48                           267
    x24       obj1                            1
    x24       c13                           138
    x24       c17                           641
    x24       c33                           672
    x24       c46                           357
    x24       c47                           156
    x24       c57                           221
    x25       obj1                            1
    x25       c17                           150
    x25       c30                           589
    x25       c33                           243
    x25       c39                           436
    x25       c41                           144
    x25       c63                           785
    x26       obj1                            1
    x26       c15                           624
    x26       c36                           842
    x26       c37                           429
    x26       c54                           628
    x26       c63                           879
    x26       c69                           708
    x27       obj1                            1
    x27       c6                            510
    x27       c32                           183
    x27       c37                           572
    x27       c48                           332
    x27       c58                           391
    x27       c68                           436
    x28       obj1                            1
    x28       c7                            770
    x28       c8                            599
    x28       c12                           737
    x28       c23                           810
    x28       c25                           332
    x28       c31                           536
    x28       c38                           657
    x28       c43                           776
    x28       c46                           879
    x28       c51                           825
    x28       c56                           471
    x28       c69                           346
    x29       obj1                            1
    x29       c2                            627
    x29       c16                           182
    x29       c22                           784
    x29       c30                           757
    x29       c51                           421
    x29       c55                           322
    x29       c57                           387
    x30       obj1                            1
    x30       c6                            127
    x30       c11                           578
    x30       c22                           802
    x30       c28                           298
    x30       c41                           535
    x30       c45                           407
    x30       c47                           264
    x30       c54                           799
    x30       c58                           992
    x30       c69                           710
    x31       obj1                            1
    x31       c2                            272
    x31       c9                            585
    x31       c37                           720
    x31       c44                           596
    x31       c46                           289
    x31       c66                           576
    x31       c69                           296
    x32       obj1                            1
    x32       c6                            983
    x32       c10                           179
    x32       c12                           809
    x32       c22                           410
    x32       c39                           606
    x32       c42                           853
    x32       c53                           326
    x32       c56                           461
    x32       c60                           883
    x32       c61                           756
    x32       c66                           401
    x32       c68                           414
    x33       obj1                            1
    x33       c7                            958
    x33       c15                           468
    x33       c35                           302
    x33       c61                           520
    x34       obj1                            1
    x34       c10                           845
    x34       c20                           321
    x34       c24                           537
    x34       c28                           686
    x34       c33                           200
    x34       c34                           377
    x35       obj1                            1
    x35       c4                            417
    x35       c15                           567
    x35       c17                           522
    x35       c30                           676
    x35       c32                           220
    x35       c39                           441
    x35       c48                           628
    x35       c49                           171
    x35       c55                           895
    x35       c56                           162
    x36       obj1                            1
    x36       c16                           367
    x36       c20                           503
    x36       c24                           527
    x36       c25                           419
    x36       c36                           959
    x36       c45                           512
    x36       c47                           632
    x36       c49                           385
    x37       obj1                            1
    x37       c13                           371
    x37       c17                           420
    x37       c26                           770
    x37       c27                           428
    x37       c35                           252
    x37       c57                           851
    x37       c60                           805
    x37       c65                           138
    x37       c66                           374
    x37       c67                           743
    x38       obj1                            1
    x38       c4                            121
    x38       c11                           167
    x38       c13                           791
    x38       c14                           309
    x38       c26                           884
    x38       c30                           340
    x38       c43                           929
    x38       c46                           228
    x38       c57                           983
    x39       obj1                            1
    x39       c21                           179
    x39       c23                           166
    x39       c29                           646
    x39       c33                           473
    x39       c61                           926
    x40       obj1                            1
    x40       c9                            895
    x40       c11                           645
    x40       c30                           124
    x40       c57                           507
    x40       c58                           677
    x41       obj1                            1
    x41       c9                            125
    x41       c24                           812
    x41       c36                           407
    x41       c51                           503
    x41       c69                           580
    x42       obj1                            1
    x42       c9                            481
    x42       c49                           788
    x42       c52                           465
    x43       obj1                            1
    x43       c12                           125
    x43       c14                           843
    x43       c20                           622
    x43       c24                           965
    x43       c34                           701
    x43       c54                           800
    x43       c66                           509
    x44       obj1                            1
    x44       c2                            424
    x44       c7                            381
    x44       c14                           257
    x44       c17                           293
    x44       c20                           514
    x44       c30                           152
    x44       c69                           900
    x45       obj1                            1
    x45       c9                            329
    x45       c21                           139
    x45       c29                           719
    x45       c31                           266
    x45       c53                           714
    x45       c63                           239
    x45       c69                           814
    x45       c70                           354
    x46       obj1                            1
    x46       c11                           205
    x46       c14                           503
    x46       c18                           886
    x46       c22                           339
    x46       c29                           181
    x46       c31                           636
    x46       c55                           958
    x47       obj1                            1
    x47       c5                            439
    x47       c25                           957
    x47       c36                           966
    x47       c45                           224
    x47       c50                           398
    x47       c51                           435
    x47       c56                           608
    x47       c70                           159
    x48       obj1                            1
    x48       c15                           677
    x48       c19                           841
    x48       c25                           283
    x48       c29                           856
    x48       c31                           854
    x48       c33                           400
    x48       c38                           168
    x48       c39                           574
    x48       c51                           892
    x48       c54                           822
    x48       c55                           506
    x48       c64                           765
    x49       obj1                            1
    x49       c2                            151
    x49       c49                           822
    x49       c53                           627
    x50       obj1                            1
    x50       c26                           209
    x50       c48                           735
    x50       c66                          1000
    x50       c67                           877
    x51       obj1                            1
    x51       c1                            933
    x51       c4                            844
    x51       c18                           982
    x51       c21                           285
    x51       c26                           400
    x51       c34                           581
    x51       c41                           491
    x51       c48                           967
    x51       c53                           302
    x51       c67                           105
    x52       obj1                            1
    x52       c2                            682
    x52       c7                            336
    x52       c11                           476
    x52       c60                           615
    x52       c63                           548
    x53       obj1                            1
    x53       c15                           308
    x53       c39                           667
    x53       c44                           855
    x53       c58                           786
    x53       c61                           988
    x53       c70                           974
    x54       obj1                            1
    x54       c14                           507
    x54       c38                           242
    x54       c40                           580
    x54       c44                           790
    x54       c45                           176
    x54       c54                           778
    x54       c62                           280
    x55       obj1                            1
    x55       c8                            459
    x55       c11                           758
    x55       c12                           171
    x55       c30                           345
    x55       c40                           534
    x55       c50                           958
    x55       c58                           991
    x55       c64                           449
    x56       obj1                            1
    x56       c11                           152
    x56       c17                           375
    x56       c42                           986
    x56       c43                           811
    x56       c64                           331
    x56       c67                           354
    x57       obj1                            1
    x57       c18                           247
    x57       c19                           600
    x57       c21                           917
    x57       c27                           434
    x57       c35                           203
    x57       c56                           720
    x57       c60                           367
    x57       c70                           315
    x58       obj1                            1
    x58       c28                           244
    x58       c37                           526
    x58       c39                           241
    x59       obj1                            1
    x59       c3                            573
    x59       c4                            680
    x59       c7                            698
    x59       c9                            921
    x59       c21                           856
    x59       c26                           424
    x59       c32                           171
    x59       c36                           166
    x59       c40                           558
    x59       c51                           436
    x60       obj1                            1
    x60       c4                            434
    x60       c12                           490
    x60       c44                           602
    x60       c45                           270
    x60       c50                           801
    x60       c54                           707
    x60       c59                           301
    x60       c66                           507
    x61       obj1                            1
    x61       c1                            966
    x61       c2                            542
    x61       c8                            356
    x61       c22                           188
    x61       c29                           998
    x61       c40                           615
    x61       c47                           682
    x61       c52                           841
    x61       c55                           473
    x61       c70                           920
    x62       obj1                            1
    x62       c9                            734
    x62       c15                           735
    x62       c16                           427
    x62       c20                           431
    x62       c43                           647
    x62       c46                           748
    x62       c58                           729
    x63       obj1                            1
    x63       c10                           288
    x63       c20                           967
    x64       obj1                            1
    x64       c3                            101
    x64       c63                           987
    x64       c64                           335
    x64       c66                           247
    x65       obj1                            1
    x65       c3                            972
    x65       c16                           631
    x65       c22                           986
    x65       c42                           296
    x65       c43                           513
    x65       c47                           812
    x65       c52                           896
    x65       c63                           557
    x65       c69                           381
    x66       obj1                            1
    x66       c8                            802
    x66       c12                           931
    x66       c24                           616
    x66       c25                           300
    x66       c39                           405
    x66       c40                           211
    x66       c59                           449
    x66       c65                           193
    x67       obj1                            1
    x67       c7                            623
    x67       c11                           961
    x67       c24                           141
    x67       c25                           284
    x67       c27                           278
    x67       c29                           962
    x67       c44                           826
    x67       c55                           675
    x67       c63                           786
    x67       c64                           589
    x67       c67                           314
    x68       obj1                            1
    x68       c21                           677
    x68       c37                           240
    x68       c42                           189
    x68       c51                           954
    x68       c60                           298
    x69       obj1                            1
    x69       c2                            594
    x69       c23                           822
    x69       c24                           561
    x69       c52                           760
    x69       c58                           768
    x70       obj1                            1
    x70       c33                           381
    x70       c50                           189
    x70       c52                           762
    MARK0001  'MARKER'                 'INTEND'
RHS
    rhs       c1                           1095
    rhs       c2                           1966
    rhs       c3                           1024
    rhs       c4                           1886
    rhs       c5                           1019
    rhs       c6                           1935
    rhs       c7                           3327
    rhs       c8                           2304
    rhs       c9                           2114
    rhs       c10                          1437
    rhs       c11                          2551
    rhs       c12                          1632
    rhs       c13                          1412
    rhs       c14                          1700
    rhs       c15                          2764
    rhs       c16                          1782
    rhs       c17                          1201
    rhs       c18                          2144
    rhs       c19                          1926
    rhs       c20                          2603
    rhs       c21                          2458
    rhs       c22                          2299
    rhs       c23                          1836
    rhs       c24                          3101
    rhs       c25                          1468
    rhs       c26                          2142
    rhs       c27                          2644
    rhs       c28                          1254
    rhs       c29                          2181
    rhs       c30                          2481
    rhs       c31                          1146
    rhs       c32                           480
    rhs       c33                          1423
    rhs       c34                          1044
    rhs       c35                          1324
    rhs       c36                          2791
    rhs       c37                          2271
    rhs       c38                          1604
    rhs       c39                          1893
    rhs       c40                          2310
    rhs       c41                          1550
    rhs       c42                          1626
    rhs       c43                          2707
    rhs       c44                          3015
    rhs       c45                          1184
    rhs       c46                          1251
    rhs       c47                          1614
    rhs       c48                          1918
    rhs       c49                          1835
    rhs       c50                          1226
    rhs       c51                          2233
    rhs       c52                          3467
    rhs       c53                          1607
    rhs       c54                          2982
    rhs       c55                          2935
    rhs       c56                          1564
    rhs       c57                          2585
    rhs       c58                          3490
    rhs       c59                           937
    rhs       c60                          1484
    rhs       c61                          2350
    rhs       c62                          1245
    rhs       c63                          2678
    rhs       c64                          1382
    rhs       c65                          1720
    rhs       c66                          2771
    rhs       c67                          2125
    rhs       c68                           953
    rhs       c69                          2756
    rhs       c70                          1898
BOUNDS
 LI bnd       x1        0
 LI bnd       x2        0
 LI bnd       x3        0
 LI bnd       x4        0
 LI bnd       x5        0
 LI bnd       x6        0
 LI bnd       x7        0
 LI bnd       x8        0
 LI bnd       x9        0
 LI bnd       x10       0
 LI bnd       x11       0
 LI bnd       x12       0
 LI bnd       x13       0
 LI bnd       x14       0
 LI bnd       x15       0
 LI bnd       x16       0
 LI bnd       x17       0
 LI bnd       x18       0
 LI bnd       x19       0
 LI bnd       x20       0
 LI bnd       x21       0
 LI bnd       x22       0
 LI bnd       x23       0
 LI bnd       x24       0
 LI bnd       x25       0
 LI bnd       x26       0
 LI bnd       x27       0
 LI bnd       x28       0
 LI bnd       x29       0
 LI bnd       x30       0
 LI bnd       x31       0
 LI bnd       x32       0
 LI bnd       x33       0
 LI bnd       x34       0
 LI bnd       x35       0
 LI bnd       x36       0
 LI bnd       x37       0
 LI bnd       x38       0
 LI bnd       x39       0
 LI bnd       x40       0
 LI bnd       x41       0
 LI bnd       x42       0
 LI bnd       x43       0
 LI bnd       x44       0
 LI bnd       x45       0
 LI bnd       x46       0
 LI bnd       x47       0
 LI bnd       x48       0
 LI bnd       x49       0
 LI bnd       x50       0
 LI bnd       x51       0
 LI bnd       x52       0
 LI bnd       x53       0
 LI bnd       x54       0
 LI bnd       x55       0
 LI bnd       x56       0
 LI bnd       x57       0
 LI bnd       x58       0
 LI bnd       x59       0
 LI bnd       x60       0
 LI bnd       x61       0
 LI bnd       x62       0
 LI bnd       x63       0
 LI bnd       x64       0
 LI bnd       x65       0
 LI bnd       x66       0
 LI bnd       x67       0
 LI bnd       x68       0
 LI bnd       x69       0
 LI bnd       x70       0
ENDATA
